$rem
JOBTYPE FORCE
METHOD B3LYP
SCF_MAX_CYCLES 150 
BASIS 6-31G*
WAVEFUNCTION_ANALYSIS FALSE
GEOM_OPT_MAX_CYCLES 300 
xc_grid 1
scf_convergence 6
SYM_IGNORE TRUE
SYMMETRY   FALSE
molden_format true
$end

$molecule
0 1
