! wB97X D4 def2-TZVP CPCM(DMSO) defgrid2 OptTS Freq

%scf
  MaxIter 500
end

%pal
  nproc 24
end

%maxcore 2000

%geom
  Calc_Hess true
  Recalc_Hess 1
end

%base "10025_2-TSOPT"

*xyz 0 2
C    0.21570760   0.38432434  -1.00298645 
C    1.99489260   0.70297556   0.57749622 
C   -0.08307752  -1.00203671  -1.27387710 
C    1.65435620   0.87370960  -0.86881131 
C   -2.75820424   0.52664622  -0.45639291 
C    2.32385839  -0.62688438   1.14539707 
C   -1.59381494  -0.30253712   0.02183179 
N   -1.52112617  -0.46307497   1.36238454 
N   -1.20770908  -1.42035154  -0.76066876 
H   -0.50524318   1.10645627  -1.35783398 
H    1.56509056   1.42827021   1.25628033 
H    0.54018777  -1.69168350  -1.84709303 
H    1.72155991   1.92585572  -1.15524435 
H    2.36095611   0.31788249  -1.50013529 
H   -2.73627203   0.64794390  -1.53589855 
H   -2.78484765   1.50459012   0.02461625 
H   -3.67010242  -0.01515032  -0.20066144 
H    2.98558706  -1.19191062   0.48470428 
H    1.41111632  -1.22280502   1.26782143 
H    2.81045013  -0.54704922   2.12129319 
H   -0.98735797  -1.23300315   1.71752683 
H   -1.73600745   0.29783212   1.98025125 
*
