! wB97X D4 def2-TZVP CPCM(DMSO) defgrid2 OptTS Freq

%scf
  MaxIter 500
end

%pal
  nproc 24
end

%maxcore 2000

%geom
  Calc_Hess true
  Recalc_Hess 1
end

%base "105772_0-TSOPT"

*xyz 0 2
C   -0.41630243   0.03291846  -0.85518934 
C    0.45346222  -0.58137918   2.11832962 
C    0.23169485  -0.39180143  -1.92835555 
C    0.28967694   0.89850957   0.16286611 
C   -1.86150982  -0.26846731  -0.59672250 
N    0.00488405   0.55861756   1.54556992 
O    1.10797114  -1.42468793   1.55199050 
H    4.69278417  -0.48269078  -0.11554457 
H    0.15617649  -0.66947690   3.17948809 
H    1.28595887  -0.18101148  -2.06389843 
H   -0.26291677  -0.97248278  -2.69813480 
H   -0.03159649   1.93471391   0.02589792 
H    1.36796000   0.85494824  -0.00975990 
H   -1.96615662  -0.91638929   0.27693346 
H   -2.31695993  -0.77001483  -1.44973228 
H   -2.42736146   0.64487290  -0.38866920 
H   -0.49790651   1.20844588   2.12109126 
*
