! B97-3c def2-mTZVP CPCM(DMSO) defgrid2 NumFreq

%scf
  MaxIter 500
end

%pal
  nproc 32
end

%maxcore 7200

%base "JHVUUIQHEXNRLG-UHFFFAOYSA-N-FullTZ"

*xyzfile -1 1 /scratch/negishi/li1724/Test-CentralizedCode-4-5/DFT/JHVUUIQHEXNRLG-UHFFFAOYSA-N/JHVUUIQHEXNRLG-UHFFFAOYSA-N-FullTZ.xyz
