! wB97X D4 def2-TZVP CPCM(DMSO) defgrid2 OptTS Freq

%scf
  MaxIter 500
end

%pal
  nproc 24
end

%maxcore 2000

%geom
  Calc_Hess true
  Recalc_Hess 1
end

%base "70099_1-TSOPT"

*xyz 0 2
C    0.58788894   0.67623236  -1.24134147 
N   -0.68935335   1.16036633  -0.76933616 
N    0.40507991  -2.31040883  -0.24438249 
C   -1.26035432   0.44347757   0.14625213 
N    0.19815811   2.02651273   1.58056069 
N   -1.81010280  -0.21889884   0.93911276 
H    0.17326952   1.67758108   2.55685029 
H   -0.70897028   2.52233973   1.54039580 
H    0.88521460   1.26969241  -2.09975139 
H    0.54206862  -0.39068242  -1.48706614 
H    1.33859493   0.77300072  -0.45096990 
H   -0.28842920  -2.98929707  -0.64496354 
H   -0.11777667  -1.61893773   0.40186950 
H    0.98824871  -2.89219743   0.36970209 
*
