! B97-3c def2-SVP CPCM(DMSO) defgrid2 OptTS Freq

%scf
  MaxIter 500
end

%pal
  nproc 32
end

%maxcore 7200

%geom
  Calc_Hess true
  Recalc_Hess 3
end

%base "CWMHSQPVYVHHDK-QJPJQTDYNZXKQF_0_0-TSOPT"

*xyz -1 1
Br   0.37275989   3.22237698  -0.47518197 newgto "def2-TZVP" end
C   -2.44915843  -0.98601524  -1.69504187 
C   -4.12126395  -2.08813389  -0.27653461 
C    3.29359325  -1.99064594  -1.75588085 
C    0.88826285  -1.74822485  -1.34184311 
C   -3.10461899  -2.51976144   0.55099974 
C    0.72538568  -3.09293633  -1.72385561 
C   -1.40820196  -1.36205258  -0.77219546 
C    3.10398838  -3.33020527  -2.13693739 
C   -2.14162491  -0.30199644  -2.89668919 
C   -3.81507211  -1.33268534  -1.43529934 
C    2.21562109  -1.18017989  -1.35410943 
C   -1.74435327  -2.18615159   0.32234673 
C    1.81887639  -3.88120996  -2.11963461 
C   -5.52367339   0.50543686   2.10082688 
C   -3.61801708   1.87345904  -0.69232063 
C   -3.90656712   1.42423150   0.60880065 
C   -3.13178146   0.06025333  -3.79124117 
C   -4.81718811  -0.91866046  -2.35279926 
C   -2.32830044   2.24264113  -1.04474540 
C   -2.88315254   1.39419425   1.57099846 
C   -1.32285590   2.17109907  -0.08511802 newgto "def2-TZVP" end
C   -1.59202295   1.80341251   1.22862101 
C   -0.78191054  -4.10309332   1.59391874 
C   -0.72560972  -2.74149670   1.24097925 
C   -4.48606319  -0.23514625  -3.50750522 
C    3.42961745   0.88350976  -1.12153756 
C    3.87966080   1.13874810  -2.43900442 
C    4.63857689   0.51317701   3.58098378 
C    4.89082871   0.84880316   2.24852766 
C    3.32499619   0.48095690   4.05938215 
C    3.84182618   1.15537297   1.36134750 
C    4.13852354   1.49791376  -0.04415036 
C    0.16460663  -4.67005290   2.45064652 
C    4.93966789   2.00012108  -2.70199067 
C    0.30742936  -1.96118320   1.78894757 
C    2.27734054   0.79283447   3.18762560 
C    2.53613700   1.11062700   1.86220100 newgto "def2-TZVP" end
C    5.20677672   2.36646989  -0.33445025 
C    5.60999937   2.63172800  -1.64276362 
C    1.19519418  -3.88391741   2.97436209 
C    1.25668482  -2.52593973   2.64115399 
Cu   0.55184301   0.87678198  -0.46169200 newgto "def2-TZVP" end
H   -1.09742085  -0.05872852  -3.09003726 newgto "STO-3G" end
H   -5.38464632   1.23635119   2.91016224 newgto "STO-3G" end
H   -5.16041971  -2.33280607  -0.05520485 newgto "STO-3G" end
H    4.29825877  -1.56555618  -1.75078692 newgto "STO-3G" end
H   -0.27887928  -3.51843890  -1.72050142 newgto "STO-3G" end
H   -3.34893333  -3.11187856   1.43408624 newgto "STO-3G" end
H    3.96313592  -3.93352270  -2.43586387 newgto "STO-3G" end
H   -6.58207213   0.23283088   2.03988446 newgto "STO-3G" end
H   -1.56669497  -4.72991006   1.16896600 newgto "STO-3G" end
H   -4.41054890   1.88847984  -1.43708990 newgto "STO-3G" end
H   -2.10508196   2.57303164  -2.05578733 newgto "STO-3G" end
H   -3.07442935   1.06566243   2.58988306 newgto "STO-3G" end
H    1.65645678  -4.91950731  -2.41497373 newgto "STO-3G" end
H   -2.87182871   0.58364408  -4.71225004 newgto "STO-3G" end
H    3.34896996   0.65473389  -3.25982305 newgto "STO-3G" end
H   -4.92931484  -0.39593609   2.30717543 newgto "STO-3G" end
H   -5.85855172  -1.15785767  -2.13122169 newgto "STO-3G" end
H   -0.80536536   1.81687111   1.98115760 newgto "STO-3G" end
H    5.47036508   0.27070446   4.24368693 newgto "STO-3G" end
H    5.91709625   0.85594999   1.87958321 newgto "STO-3G" end
H   -5.26713144   0.07065812  -4.20514440 newgto "STO-3G" end
H    3.12052869   0.21855927   5.09807582 newgto "STO-3G" end
H    0.10298286  -5.73067327   2.69856500 newgto "STO-3G" end
H    0.37395578  -0.90560674   1.53022674 newgto "STO-3G" end
H    5.23670550   2.19474073  -3.73425888 newgto "STO-3G" end
H    1.24572887   0.79028782   3.54040536 newgto "STO-3G" end
H    1.71041826   1.39747289   1.22492499 newgto "STO-3G" end
H    5.72881370   2.84524948   0.49564014 newgto "STO-3G" end
H    6.43163768   3.32180438  -1.83614251 newgto "STO-3G" end
H    1.94278379  -4.32317163   3.63629870 newgto "STO-3G" end
H    2.04910798  -1.89777906   3.04921131 newgto "STO-3G" end
N   -0.13011914  -0.89850737  -1.00818837 newgto "def2-TZVP" end
N    2.32041971   0.10373000  -0.88749400 newgto "def2-TZVP" end
O   -5.18580737   1.05969694   0.83983470 
*
