! B97-3c def2-SVP CPCM(DMSO) defgrid2 OPT Freq

%scf
  MaxIter 500
end

%pal
  nproc 32
end

%maxcore 7200

%geom
  Constraints
    {C 0 C}
    {C 42 C}
    {C 37 C}
    {C 21 C}
    {C 42 C}
  end
end

%base "CWMHSQPVYVHHDK-QJPJQTDYNZXKQF_0_0-COPT"

*xyz -1 1
Br   0.37276000   3.22237700  -0.47518200 newgto "def2-TZVP" end
C   -2.72844100  -0.39482200  -1.63430400 
C   -4.53658100  -1.40534300  -0.35859100 
C    2.83195100  -2.29576300  -1.36640400 
C    0.48936700  -1.71371700  -1.15108900 
C   -3.60649900  -2.02291800   0.43543600 
C    0.17120800  -3.04405200  -1.40317300 
C   -1.75853000  -1.00443700  -0.76478000 
C    2.49054600  -3.62310800  -1.56172000 
C   -2.31269600   0.34991300  -2.75040400 
C   -4.11615700  -0.59623900  -1.43072400 
C    1.85255200  -1.32018400  -1.17562900 
C   -2.22783900  -1.86020600   0.25322400 
C    1.15989300  -3.99546300  -1.60002300 
C   -5.45848500   0.69526100   2.31027800 
C   -3.68107800   2.32200800  -0.40072100 
C   -3.89069700   1.64442100   0.80032500 
C   -3.22141400   0.89796500  -3.62143600 
C   -5.02876500   0.00735400  -2.31908200 
C   -2.40708600   2.58282600  -0.85049900 
C   -2.79302900   1.26384000   1.56835000 
C   -1.32285600   2.17109900  -0.08511800 newgto "def2-TZVP" end
C   -1.51187400   1.57162500   1.14921200 
C   -1.59518200  -3.94949800   1.42256100 
C   -1.31610600  -2.61380300   1.12630100 
C   -4.59221200   0.73966600  -3.39184800 
C    3.43352300   0.45722500  -1.08794800 
C    4.02286900   0.70196500  -2.33408400 
C    3.73441600  -0.77871500   3.48744600 
C    4.24735700  -0.52505100   2.22932900 
C    2.61367200  -0.09779500   3.93311100 
C    3.65619400   0.42268800   1.40283000 
C    4.20818600   0.69820900   0.06620500 
C   -0.74581100  -4.70003200   2.21245500 
C    5.31223400   1.17948600  -2.44135200 
C   -0.15664800  -2.05501900   1.66245900 
C    2.01978600   0.84963500   3.11819700 
C    2.53613700   1.11062700   1.86220100 newgto "def2-TZVP" end
C    5.51003100   1.15953200  -0.05953900 
C    6.06585700   1.41024700  -1.30128900 
C    0.40856100  -4.13327000   2.72445000 
C    0.69679300  -2.80761600   2.44602500 
Cu   0.55184300   0.87678200  -0.46169200 newgto "def2-TZVP" end
H   -1.24949600   0.46593100  -2.91272600 newgto "STO-3G" end
H   -5.07947600   1.19219600   3.21058400 newgto "STO-3G" end
H   -5.59541400  -1.54919300  -0.18778000 newgto "STO-3G" end
H    3.87409200  -2.00016100  -1.35611400 newgto "STO-3G" end
H   -0.86932200  -3.33623800  -1.45908500 newgto "STO-3G" end
H   -3.94124900  -2.64573200   1.25813200 newgto "STO-3G" end
H    3.27073300  -4.36297100  -1.69627600 newgto "STO-3G" end
H   -6.54370200   0.62125000   2.37246700 newgto "STO-3G" end
H   -2.47614900  -4.41290100   0.99870600 newgto "STO-3G" end
H   -4.53870200   2.63007000  -0.97544000 newgto "STO-3G" end
H   -2.25463000   3.10644400  -1.77996800 newgto "STO-3G" end
H   -2.91422000   0.73893100   2.50213600 newgto "STO-3G" end
H    0.88212800  -5.02644100  -1.78127500 newgto "STO-3G" end
H   -2.88380100   1.45534800  -4.48536600 newgto "STO-3G" end
H    3.43432300   0.50408700  -3.21906900 newgto "STO-3G" end
H   -5.02761500  -0.30783000   2.23676000 newgto "STO-3G" end
H   -6.08838600  -0.12466900  -2.13892800 newgto "STO-3G" end
H   -0.67299600   1.32451500   1.78362600 newgto "STO-3G" end
H    4.20654800  -1.51521000   4.12402800 newgto "STO-3G" end
H    5.11361800  -1.06691700   1.87653500 newgto "STO-3G" end
H   -5.30487700   1.18898100  -4.07259400 newgto "STO-3G" end
H    2.20800000  -0.30197800   4.91464000 newgto "STO-3G" end
H   -0.97745300  -5.73766100   2.41687000 newgto "STO-3G" end
H    0.08806200  -1.02244000   1.45943100 newgto "STO-3G" end
H    5.73797900   1.36974600  -3.41839400 newgto "STO-3G" end
H    1.15484300   1.39514700   3.47330400 newgto "STO-3G" end
H    2.13012600   1.91018100   1.26208500 newgto "STO-3G" end
H    6.09147800   1.33180100   0.83807100 newgto "STO-3G" end
H    7.08029600   1.77744100  -1.37928800 newgto "STO-3G" end
H    1.08444500  -4.72309000   3.32872700 newgto "STO-3G" end
H    1.59890900  -2.35637700   2.83299400 newgto "STO-3G" end
N   -0.44904800  -0.71641600  -1.00534100 newgto "def2-TZVP" end
N    2.12643600   0.00464900  -1.01921800 newgto "def2-TZVP" end
O   -5.19375500   1.44699100   1.15304800 
*
