! B97-3c def2-SVP CPCM(DMSO) defgrid2 OPT Freq

%scf
  MaxIter 500
end

%pal
  nproc 32
end

%maxcore 7200

%base "QJPJQTDYNZXKQF-UHFFFAOYSA-N-OPT"

*xyz 0 1
Br  -2.40152628  -0.08294166   0.00008267 newgto "def2-TZVP" end
C    4.45972054  -0.68221602   0.00017409 
C    1.64395941  -1.01397110  -0.00007776 
C    2.26272927   0.23282167   0.00000681 
C    0.26216039  -1.10365231  -0.00021888 
C    1.47336240   1.38643343   0.00001531 
C   -0.50009530   0.04819752  -0.00036492 
C    0.09864548   1.29853937  -0.00016310 
H    4.31651284  -1.29723554   0.89419371 newgto "STO-3G" end
H    4.31653607  -1.29750167  -0.89360275 newgto "STO-3G" end
H    2.22156221  -1.92437295  -0.00014911 newgto "STO-3G" end
H   -0.21485544  -2.07173567  -0.00036275 newgto "STO-3G" end
H    1.96607863   2.34535439   0.00006601 newgto "STO-3G" end
H    5.47057148  -0.27820090   0.00026335 newgto "STO-3G" end
H   -0.50640306   2.19187533  -0.00012456 newgto "STO-3G" end
O    3.60452635   0.43638827   0.00004104 
*
