! RKS PBE def2-TZVPD PAL2

* xyzfile 0 1 ../aro_test.xyz

# Never forget your bonus line!!