! B97-3c def2-SVP CPCM(DMSO) defgrid2 OPT Freq

%scf
  MaxIter 500
end

%pal
  nproc 32
end

%maxcore 7200

%base "FBGRMGAZGXUGPH-UHFFFAOYSA-M-OPT"

*xyz -1 1
Br   1.38613542  -1.56499100  -2.08590165 newgto "def2-TZVP" end
C   -2.59783457   0.49950896   1.18692724 
C   -4.33548299   1.89890534   0.21732020 
C    2.99870247   2.26197371   1.57655673 
C    0.64585085   1.84074451   1.19418399 
C   -3.37147837   2.74276705  -0.26200692 
C    0.32926840   2.94197350   1.97857709 
C   -1.59966640   1.32650692   0.58188705 
C    2.66382012   3.38360712   2.32083418 
C   -2.23741869  -0.56576950   2.03136117 
C   -3.97202931   0.76696025   0.97215075 
C    2.00006206   1.49524706   0.98882475 
C   -2.00318369   2.47733200  -0.10040106 
C    1.33941759   3.72308396   2.51932658 
C   -5.64500329  -3.21988685  -0.92385698 
C   -2.92317895  -2.56383924  -0.57543915 
C   -3.76487217  -1.85452810  -1.41753003 
C   -3.18942063  -1.36346515   2.60597801 
C   -4.92865148  -0.09724841   1.54262335 
C   -1.63307702  -2.10913910  -0.34410782 
C   -3.27891403  -0.72562862  -2.07097648 
C   -1.17393230  -0.94274650  -0.92983355 newgto "def2-TZVP" end
C   -1.99381961  -0.28128635  -1.83456284 
C    0.03339476   3.02067588  -1.46266770 
C   -1.02752374   3.43028498  -0.65982385 
C   -4.54658269  -1.14240685   2.33753834 
C    3.42527090  -0.22791998   0.07915737 
C    4.45183877   0.48372359  -0.54571740 
C    0.92947787  -2.54511049   2.84901025 
C    1.94110738  -1.82756183   2.23779026 
C    0.54802250  -3.77892301   2.34702363 
C    2.59185159  -2.33825184   1.11573403 
C    3.65594367  -1.56802106   0.44768354 
C    0.95117588   3.93427452  -1.94313462 
C    5.67647235  -0.10589221  -0.78227036 
C   -1.15417373   4.78769409  -0.37366527 
C    1.19328514  -4.29638872   1.23592958 
C    2.21083885  -3.58480949   0.62667210 newgto "def2-TZVP" end
C    4.88377443  -2.15128776   0.17489513 
C    5.89797054  -1.42599256  -0.42413093 
C    0.82476015   5.27789279  -1.63477743 
C   -0.23572964   5.70201262  -0.85298918 
Cu   0.55247934  -0.31043012  -0.39252840 newgto "def2-TZVP" end
H   -1.18705394  -0.73125092   2.22268565 newgto "STO-3G" end
H   -6.69695867  -3.24988288  -1.20814993 newgto "STO-3G" end
H   -5.38294388   2.09979218   0.03836911 newgto "STO-3G" end
H    4.03589415   1.97696646   1.46723937 newgto "STO-3G" end
H   -0.70730645   3.17865930   2.17754962 newgto "STO-3G" end
H   -3.65569298   3.62023608  -0.82914347 newgto "STO-3G" end
H    3.45123566   3.98337056   2.75884411 newgto "STO-3G" end
H   -5.18581953  -4.19002646  -1.14704517 newgto "STO-3G" end
H    0.14427943   1.97643867  -1.71669729 newgto "STO-3G" end
H   -3.24974423  -3.46477478  -0.07926269 newgto "STO-3G" end
H   -0.99206574  -2.68054172   0.31359968 newgto "STO-3G" end
H   -3.92864925  -0.19918454  -2.75284549 newgto "STO-3G" end
H    1.08084597   4.59058878   3.11219750 newgto "STO-3G" end
H   -2.89967223  -2.17246120   3.26243970 newgto "STO-3G" end
H    4.26292729   1.50035899  -0.86128507 newgto "STO-3G" end
H   -5.56318736  -3.01972678   0.15002087 newgto "STO-3G" end
H   -5.97634704   0.08897121   1.34438857 newgto "STO-3G" end
H   -1.64843624   0.60295805  -2.35194152 newgto "STO-3G" end
H    0.43277283  -2.13794598   3.71969312 newgto "STO-3G" end
H    2.23399037  -0.86576484   2.63502036 newgto "STO-3G" end
H   -5.29076826  -1.79453653   2.77790148 newgto "STO-3G" end
H   -0.25411644  -4.33191097   2.81758091 newgto "STO-3G" end
H    1.77176944   3.59306325  -2.55841926 newgto "STO-3G" end
H   -1.96979719   5.12133180   0.25368779 newgto "STO-3G" end
H    6.45990599   0.46224770  -1.26643815 newgto "STO-3G" end
H    0.89375452  -5.25457341   0.83344370 newgto "STO-3G" end
H    2.68985052  -3.97105261  -0.26096036 newgto "STO-3G" end
H    5.05012563  -3.18134655   0.46154327 newgto "STO-3G" end
H    6.85502483  -1.89007412  -0.61863059 newgto "STO-3G" end
H    1.55026418   5.99107235  -2.00091702 newgto "STO-3G" end
H   -0.34259801   6.75051422  -0.60835481 newgto "STO-3G" end
N   -0.27676915   0.94963939   0.69349730 newgto "def2-TZVP" end
N    2.17012184   0.32479384   0.29054224 newgto "def2-TZVP" end
O   -5.07202501  -2.18697641  -1.68048190 
*
